p cnf 100 20
x 3 -6 -7 9 -10 11 15 -16 -19 22 23 25 -27 29 30 -31 33 -35 -37 38 -40 41 42 43 44 45 -50 -52 53 58 -60 62 -64 66 67 69 70 72 -73 74 76 77 78 85 86 88 89 92 96 -98 -99 0
x -1 3 -5 -7 -8 9 -10 11 -13 14 -18 -20 -24 -27 29 30 -37 -41 -48 51 -53 -61 62 66 70 73 -76 -81 -84 -85 -87 88 91 -92 94 98 0
x -3 4 5 -6 -10 13 -15 -16 17 -18 -23 25 26 -27 -28 30 -31 -32 33 -34 -36 -37 40 -41 -43 -45 -47 50 53 57 58 59 60 -61 62 -65 67 68 73 -77 78 80 81 83 -86 87 -88 -90 92 93 95 -96 99 100 0
x 3 4 6 8 -9 10 11 -12 15 -23 24 -28 30 -32 -37 38 -41 43 -44 45 47 49 -50 -52 -53 -54 -56 -61 62 -64 -67 -68 69 -71 72 -74 77 -78 -79 -80 85 -88 89 90 92 96 0
x -1 4 -5 6 -8 -10 13 -16 18 -19 -20 23 25 28 30 -31 -32 33 34 -35 36 37 -40 -42 -44 46 -48 51 -53 -56 59 -60 61 64 67 -70 -71 73 75 76 77 78 -79 80 82 83 -84 -85 88 89 91 -92 93 95 98 0
x 1 2 -4 -6 -11 -12 -15 -16 -17 -19 20 22 -24 25 26 -27 30 31 -32 35 36 -39 -43 45 -49 50 -53 56 59 61 64 65 67 68 71 -73 -74 77 -78 79 -81 -82 -84 85 -86 89 90 99 -100 0
x -4 5 6 -8 10 -12 -13 -14 -16 -19 22 24 -30 -31 36 -39 -40 -41 42 43 44 -45 49 50 51 -54 -56 -57 -59 60 -61 64 65 66 -69 71 72 73 74 -77 78 79 -80 82 84 -85 86 -89 91 -94 95 96 -99 -100 0
x 1 4 5 -7 -8 9 -11 -13 -17 -18 28 -30 -32 34 -38 39 41 42 43 -44 45 -46 -48 -50 -52 -53 57 58 -60 62 63 64 65 -67 68 -69 73 83 85 -86 87 -91 -92 -93 -95 -97 98 100 0
x -2 -3 -11 -12 -13 14 -15 -20 -21 -26 27 28 30 33 -34 35 -36 -37 -39 41 -42 -44 46 -48 49 50 -51 -52 56 -57 58 -59 -60 62 63 65 -66 -68 69 70 72 73 -74 75 -76 80 -81 82 -83 -86 87 91 -92 -93 94 -96 -99 0
x -1 2 -4 5 6 -13 14 -17 -21 -22 23 24 31 -32 -33 34 -36 -38 -42 44 -45 46 -49 -50 -52 -53 55 56 -57 59 -60 -63 -64 65 -67 71 73 -79 80 83 85 87 93 94 -95 -96 -98 -100 0
x -1 2 -3 -5 -6 7 -8 9 10 -14 16 -20 -21 -23 -24 26 -27 29 -31 -32 33 -36 39 -41 42 43 -44 45 -46 47 -49 -53 -54 56 58 -59 -60 -61 -67 -69 71 -72 73 -74 -75 -76 78 -79 -82 -83 -91 92 93 94 98 0
x -3 7 -9 -10 13 14 -16 19 -20 21 22 23 -25 -26 27 -28 -30 -35 37 39 42 43 45 46 48 -49 -51 54 -55 -56 -58 59 64 -65 -66 -68 -69 -75 80 -82 -85 89 -91 -93 -95 97 -98 0
x 1 3 -4 -5 -8 9 -10 -11 -13 14 -15 -16 17 -19 21 -24 25 -27 28 -29 30 -35 37 -38 39 -41 -42 43 -44 47 -48 -49 50 55 -56 57 -59 63 65 -66 -67 69 -71 -74 -75 76 -82 88 90 -91 92 93 -95 -98 0
x -4 6 -7 -11 -12 13 -15 17 -18 -19 22 -26 28 32 -35 36 -37 -39 -42 -43 44 45 46 -47 -49 -51 -54 -57 -58 59 -60 -67 -68 -74 -76 80 -81 -86 -88 89 90 -92 93 -94 96 -98 0
x -1 -3 -5 -6 -8 9 10 13 14 -17 -19 -20 21 23 25 26 29 30 32 -34 36 -37 -42 43 -44 -45 48 50 -53 54 -55 58 -59 -63 -64 65 -66 67 -69 71 76 -81 82 -84 85 -86 -87 -90 91 -94 98 99 0
x 1 -4 6 9 10 12 13 -16 -17 20 23 27 29 30 31 -32 -33 35 -37 38 40 -43 45 -49 -50 -52 -54 -56 57 58 59 -60 -61 -63 66 69 73 -79 83 -86 89 91 92 -93 96 -97 98 0
x -1 -2 6 -8 -10 -14 16 20 21 -23 24 26 -28 33 38 -40 41 -44 -45 48 49 -52 53 54 -59 -62 66 -68 70 71 72 74 75 -76 -78 80 81 84 -87 -88 -89 -91 -92 93 95 98 100 0
x 4 -6 -8 13 -15 21 -24 25 28 -35 -37 39 40 41 44 -49 -51 -52 -53 56 -57 58 -59 60 64 -65 66 -68 -70 73 -74 -75 -76 80 81 -86 -87 -89 -90 -91 92 94 -95 -97 98 -99 -100 0
x 2 -3 5 -7 10 -11 14 15 17 20 21 22 23 -25 26 -27 28 29 -30 -31 33 35 -36 38 40 -43 44 -47 -48 51 52 53 54 56 -57 59 62 -63 -64 -65 66 67 69 -71 -72 73 -74 78 81 83 -84 86 -87 89 -90 91 -95 -97 0
x 1 -4 8 -10 14 15 17 -19 -20 24 -27 29 36 39 -43 -45 46 48 -49 -50 51 53 54 58 -59 -63 -64 69 -71 72 74 75 -78 80 81 83 87 88 -89 -90 -91 -92 -95 -96 97 99 -100 0
g -30